\ SCIP STATISTICS
\   Problem name     : COLORING
\   Variables        : 5 (0 binary, 5 integer, 0 implicit integer, 0 continuous)
\   Constraints      : 5
\   Obj. scale       : 1
\   Obj. offset      : 0
Minimize
 Obj: +1 S_0 +1 S_1 +1 S_2 +1 S_3 +1 S_4
Subject to
 C0: +1 S_0 = +1
 C1: +1 S_1 = +1
 C2: +1 S_2 = +1
 C3: +1 S_3 = +1
 C4: +1 S_4 = +1
Bounds
Generals
 S_0 S_1 S_2 S_3 S_4
End
